unsat
(error "line 173 column 15: model is not available")
(error "line 174 column 15: model is not available")
(error "line 175 column 15: model is not available")
(error "line 176 column 15: model is not available")
